(set-info :smt-lib-version 2.6)
(set-logic QF_LRA)
(set-info :source |
TLP-GP automated DTP to SMT-LIB encoding for planning
by F.Maris and P.Regnier, IRIT - Universite Paul Sabatier, Toulouse

|)
(set-info :category "industrial")
(set-info :status sat)
(declare-fun St_spy_variable () Real)
(declare-fun t_Init_0 () Real)
(declare-fun t_Goal_4 () Real)
(declare-fun t_C_rb_ga1_gc1_3 () Real)
(declare-fun t_A_ra_ga2_gb1_1 () Real)
(declare-fun t_B_ra_rb_gb2_2 () Real)
(declare-fun t_C_rb_ga1_gc2_3 () Real)
(declare-fun t_A_ra_ga3_gb1_1 () Real)
(declare-fun t_B_ra_rb_gb3_2 () Real)
(declare-fun t_C_rb_ga1_gc3_3 () Real)
(declare-fun t_A_ra_ga4_gb1_1 () Real)
(declare-fun t_B_ra_rb_gb4_2 () Real)
(declare-fun t_C_rb_ga1_gc4_3 () Real)
(declare-fun t_A_ra_ga5_gb1_1 () Real)
(declare-fun t_B_ra_rb_gb5_2 () Real)
(declare-fun t_A_ra_ga1_gb1_1 () Real)
(declare-fun t_B_ra_rb_gb1_2 () Real)
(declare-fun t_C_rb_ga1_gc5_3 () Real)
(assert (let ((?v_8 (- t_Goal_4 t_C_rb_ga1_gc1_3)) (?v_9 (- t_Goal_4 t_A_ra_ga2_gb1_1)) (?v_16 (- t_Goal_4 t_B_ra_rb_gb2_2)) (?v_18 (- t_Goal_4 t_C_rb_ga1_gc2_3)) (?v_19 (- t_Goal_4 t_A_ra_ga3_gb1_1)) (?v_21 (- t_Goal_4 t_B_ra_rb_gb3_2)) (?v_23 (- t_Goal_4 t_C_rb_ga1_gc3_3)) (?v_24 (- t_Goal_4 t_A_ra_ga4_gb1_1)) (?v_26 (- t_Goal_4 t_B_ra_rb_gb4_2)) (?v_28 (- t_Goal_4 t_C_rb_ga1_gc4_3)) (?v_29 (- t_Goal_4 t_A_ra_ga5_gb1_1)) (?v_31 (- t_Goal_4 t_B_ra_rb_gb5_2)) (?v_0 (- t_Goal_4 t_A_ra_ga1_gb1_1)) (?v_1 (- t_Goal_4 t_B_ra_rb_gb1_2)) (?v_34 (- t_Goal_4 t_C_rb_ga1_gc5_3)) (?v_32 (- t_B_ra_rb_gb1_2 t_A_ra_ga1_gb1_1))) (let ((?v_10 (< ?v_32 5)) (?v_30 (- t_B_ra_rb_gb5_2 t_A_ra_ga1_gb1_1))) (let ((?v_11 (< ?v_30 5)) (?v_25 (- t_B_ra_rb_gb4_2 t_A_ra_ga1_gb1_1))) (let ((?v_12 (< ?v_25 5)) (?v_20 (- t_B_ra_rb_gb3_2 t_A_ra_ga1_gb1_1))) (let ((?v_13 (< ?v_20 5)) (?v_15 (- t_B_ra_rb_gb2_2 t_A_ra_ga1_gb1_1))) (let ((?v_14 (< ?v_15 5)) (?v_33 (- t_C_rb_ga1_gc5_3 t_B_ra_rb_gb1_2))) (let ((?v_2 (< ?v_33 4)) (?v_27 (- t_C_rb_ga1_gc4_3 t_B_ra_rb_gb1_2))) (let ((?v_3 (< ?v_27 4)) (?v_22 (- t_C_rb_ga1_gc3_3 t_B_ra_rb_gb1_2))) (let ((?v_4 (< ?v_22 4)) (?v_17 (- t_C_rb_ga1_gc2_3 t_B_ra_rb_gb1_2))) (let ((?v_5 (< ?v_17 4)) (?v_7 (- t_C_rb_ga1_gc1_3 t_B_ra_rb_gb1_2))) (let ((?v_6 (< ?v_7 4)) (?v_35 (- t_A_ra_ga5_gb1_1 t_A_ra_ga1_gb1_1))) (let ((?v_139 (< ?v_35 5)) (?v_138 (> ?v_35 5))) (let ((?v_82 (or ?v_139 ?v_138)) (?v_36 (- t_A_ra_ga4_gb1_1 t_A_ra_ga1_gb1_1))) (let ((?v_130 (< ?v_36 5)) (?v_129 (> ?v_36 5))) (let ((?v_83 (or ?v_130 ?v_129)) (?v_37 (- t_A_ra_ga3_gb1_1 t_A_ra_ga1_gb1_1))) (let ((?v_114 (< ?v_37 5)) (?v_113 (> ?v_37 5))) (let ((?v_84 (or ?v_114 ?v_113)) (?v_38 (- t_A_ra_ga2_gb1_1 t_A_ra_ga1_gb1_1))) (let ((?v_78 (< ?v_38 5)) (?v_77 (> ?v_38 5)) (?v_57 (< ?v_32 1)) (?v_39 (> ?v_32 1))) (let ((?v_85 (or ?v_57 ?v_39)) (?v_52 (< ?v_0 6)) (?v_40 (- t_A_ra_ga1_gb1_1 t_A_ra_ga5_gb1_1))) (let ((?v_94 (> ?v_40 5)) (?v_41 (- t_A_ra_ga1_gb1_1 t_A_ra_ga4_gb1_1))) (let ((?v_95 (> ?v_41 5)) (?v_42 (- t_A_ra_ga1_gb1_1 t_A_ra_ga3_gb1_1))) (let ((?v_96 (> ?v_42 5)) (?v_43 (- t_A_ra_ga1_gb1_1 t_A_ra_ga2_gb1_1))) (let ((?v_72 (> ?v_43 5)) (?v_87 (- t_C_rb_ga1_gc5_3 t_A_ra_ga1_gb1_1))) (let ((?v_86 (< ?v_87 4)) (?v_89 (- t_C_rb_ga1_gc4_3 t_A_ra_ga1_gb1_1))) (let ((?v_88 (< ?v_89 4)) (?v_91 (- t_C_rb_ga1_gc3_3 t_A_ra_ga1_gb1_1))) (let ((?v_90 (< ?v_91 4)) (?v_93 (- t_C_rb_ga1_gc2_3 t_A_ra_ga1_gb1_1))) (let ((?v_92 (< ?v_93 4)) (?v_70 (- t_C_rb_ga1_gc1_3 t_A_ra_ga1_gb1_1))) (let ((?v_71 (< ?v_70 4)) (?v_44 (- t_B_ra_rb_gb5_2 t_B_ra_rb_gb1_2))) (let ((?v_141 (< ?v_44 4)) (?v_140 (> ?v_44 4))) (let ((?v_53 (or ?v_141 ?v_140)) (?v_45 (- t_B_ra_rb_gb4_2 t_B_ra_rb_gb1_2))) (let ((?v_134 (< ?v_45 4)) (?v_133 (> ?v_45 4))) (let ((?v_54 (or ?v_134 ?v_133)) (?v_46 (- t_B_ra_rb_gb3_2 t_B_ra_rb_gb1_2))) (let ((?v_123 (< ?v_46 4)) (?v_122 (> ?v_46 4))) (let ((?v_55 (or ?v_123 ?v_122)) (?v_47 (- t_B_ra_rb_gb2_2 t_B_ra_rb_gb1_2))) (let ((?v_101 (< ?v_47 4)) (?v_100 (> ?v_47 4))) (let ((?v_56 (or ?v_101 ?v_100)) (?v_48 (- t_B_ra_rb_gb1_2 t_B_ra_rb_gb5_2))) (let ((?v_66 (> ?v_48 4)) (?v_49 (- t_B_ra_rb_gb1_2 t_B_ra_rb_gb4_2))) (let ((?v_67 (> ?v_49 4)) (?v_50 (- t_B_ra_rb_gb1_2 t_B_ra_rb_gb3_2))) (let ((?v_68 (> ?v_50 4)) (?v_51 (- t_B_ra_rb_gb1_2 t_B_ra_rb_gb2_2))) (let ((?v_69 (> ?v_51 4)) (?v_59 (- t_B_ra_rb_gb1_2 t_A_ra_ga5_gb1_1))) (let ((?v_58 (> ?v_59 1)) (?v_61 (- t_B_ra_rb_gb1_2 t_A_ra_ga4_gb1_1))) (let ((?v_60 (> ?v_61 1)) (?v_63 (- t_B_ra_rb_gb1_2 t_A_ra_ga3_gb1_1))) (let ((?v_62 (> ?v_63 1)) (?v_65 (- t_B_ra_rb_gb1_2 t_A_ra_ga2_gb1_1))) (let ((?v_64 (> ?v_65 1)) (?v_105 (or ?v_39 ?v_57)) (?v_137 (< ?v_59 1))) (let ((?v_106 (or ?v_58 ?v_137)) (?v_128 (< ?v_61 1))) (let ((?v_107 (or ?v_60 ?v_128)) (?v_112 (< ?v_63 1))) (let ((?v_108 (or ?v_62 ?v_112)) (?v_76 (< ?v_65 1)) (?v_73 (- t_A_ra_ga5_gb1_1 t_A_ra_ga2_gb1_1)) (?v_74 (- t_A_ra_ga4_gb1_1 t_A_ra_ga2_gb1_1)) (?v_75 (- t_A_ra_ga3_gb1_1 t_A_ra_ga2_gb1_1)) (?v_79 (- t_A_ra_ga2_gb1_1 t_A_ra_ga5_gb1_1)) (?v_80 (- t_A_ra_ga2_gb1_1 t_A_ra_ga4_gb1_1)) (?v_81 (- t_A_ra_ga2_gb1_1 t_A_ra_ga3_gb1_1)) (?v_117 (or ?v_86 (> ?v_87 4))) (?v_136 (> ?v_89 4))) (let ((?v_118 (or ?v_88 ?v_136)) (?v_126 (> ?v_91 4))) (let ((?v_119 (or ?v_90 ?v_126)) (?v_109 (> ?v_93 4)) (?v_97 (- t_B_ra_rb_gb5_2 t_B_ra_rb_gb2_2)) (?v_98 (- t_B_ra_rb_gb4_2 t_B_ra_rb_gb2_2)) (?v_99 (- t_B_ra_rb_gb3_2 t_B_ra_rb_gb2_2)) (?v_102 (- t_B_ra_rb_gb2_2 t_B_ra_rb_gb5_2)) (?v_103 (- t_B_ra_rb_gb2_2 t_B_ra_rb_gb4_2)) (?v_104 (- t_B_ra_rb_gb2_2 t_B_ra_rb_gb3_2)) (?v_110 (- t_A_ra_ga5_gb1_1 t_A_ra_ga3_gb1_1)) (?v_111 (- t_A_ra_ga4_gb1_1 t_A_ra_ga3_gb1_1)) (?v_115 (- t_A_ra_ga3_gb1_1 t_A_ra_ga5_gb1_1)) (?v_116 (- t_A_ra_ga3_gb1_1 t_A_ra_ga4_gb1_1)) (?v_120 (- t_B_ra_rb_gb5_2 t_B_ra_rb_gb3_2)) (?v_121 (- t_B_ra_rb_gb4_2 t_B_ra_rb_gb3_2)) (?v_124 (- t_B_ra_rb_gb3_2 t_B_ra_rb_gb5_2)) (?v_125 (- t_B_ra_rb_gb3_2 t_B_ra_rb_gb4_2)) (?v_127 (- t_A_ra_ga5_gb1_1 t_A_ra_ga4_gb1_1)) (?v_131 (- t_A_ra_ga4_gb1_1 t_A_ra_ga5_gb1_1)) (?v_132 (- t_B_ra_rb_gb5_2 t_B_ra_rb_gb4_2)) (?v_135 (- t_B_ra_rb_gb4_2 t_B_ra_rb_gb5_2))) (and (= St_spy_variable (+ 1 t_Init_0)) (>= t_Goal_4 t_Init_0) (>= (- t_C_rb_ga1_gc1_3 t_Init_0) 0) (>= ?v_8 1) (>= (- t_A_ra_ga2_gb1_1 t_Init_0) 0) (>= ?v_9 5) (>= (- t_B_ra_rb_gb2_2 t_Init_0) 0) (>= ?v_16 4) (>= (- t_C_rb_ga1_gc2_3 t_Init_0) 0) (>= ?v_18 1) (>= (- t_A_ra_ga3_gb1_1 t_Init_0) 0) (>= ?v_19 5) (>= (- t_B_ra_rb_gb3_2 t_Init_0) 0) (>= ?v_21 4) (>= (- t_C_rb_ga1_gc3_3 t_Init_0) 0) (>= ?v_23 1) (>= (- t_A_ra_ga4_gb1_1 t_Init_0) 0) (>= ?v_24 5) (>= (- t_B_ra_rb_gb4_2 t_Init_0) 0) (>= ?v_26 4) (>= (- t_C_rb_ga1_gc4_3 t_Init_0) 0) (>= ?v_28 1) (>= (- t_A_ra_ga5_gb1_1 t_Init_0) 0) (>= ?v_29 5) (>= (- t_B_ra_rb_gb5_2 t_Init_0) 0) (>= ?v_31 4) (>= (- t_A_ra_ga1_gb1_1 t_Init_0) 0) (>= ?v_0 5) (>= (- t_B_ra_rb_gb1_2 t_Init_0) 0) (>= ?v_1 4) (>= (- t_C_rb_ga1_gc5_3 t_Init_0) 0) (>= ?v_34 1) ?v_10 ?v_11 ?v_12 ?v_13 ?v_14 (>= ?v_0 6) ?v_2 ?v_3 ?v_4 ?v_5 ?v_6 (>= ?v_1 5) ?v_2 ?v_3 ?v_4 ?v_5 ?v_6 ?v_6 (>= ?v_7 0) (>= ?v_8 2) (>= ?v_9 6) ?v_10 ?v_11 ?v_12 ?v_13 ?v_14 ?v_14 (>= ?v_15 0) (>= ?v_16 5) ?v_2 ?v_3 ?v_4 ?v_5 ?v_5 (>= ?v_17 0) (>= ?v_18 2) (>= ?v_19 6) ?v_10 ?v_11 ?v_12 ?v_13 ?v_13 (>= ?v_20 0) (>= ?v_21 5) ?v_2 ?v_3 ?v_4 ?v_4 (>= ?v_22 0) (>= ?v_23 2) (>= ?v_24 6) ?v_10 ?v_11 ?v_12 ?v_12 (>= ?v_25 0) (>= ?v_26 5) ?v_2 ?v_3 ?v_3 (>= ?v_27 0) (>= ?v_28 2) (>= ?v_29 6) ?v_10 ?v_11 ?v_11 (>= ?v_30 0) (>= ?v_31 5) ?v_10 (>= ?v_32 0) ?v_2 (>= ?v_33 0) (>= ?v_34 2) ?v_82 ?v_83 ?v_84 (or ?v_78 ?v_77) ?v_85 (or ?v_52 ?v_39) (or ?v_94 (< ?v_40 5)) (or ?v_95 (< ?v_41 5)) (or ?v_96 (< ?v_42 5)) (or ?v_72 (< ?v_43 5)) (or ?v_86 (< ?v_34 2)) (or ?v_88 (< ?v_28 2)) (or ?v_90 (< ?v_23 2)) (or ?v_92 (< ?v_18 2)) (or ?v_71 (< ?v_8 2)) ?v_53 ?v_54 ?v_55 ?v_56 (or ?v_66 (< ?v_48 4)) (or ?v_67 (< ?v_49 4)) (or ?v_68 (< ?v_50 4)) (or ?v_69 (< ?v_51 4)) (or ?v_39 ?v_52) (or ?v_58 (< ?v_29 6)) (or ?v_60 (< ?v_24 6)) (or ?v_62 (< ?v_19 6)) (or ?v_64 (< ?v_9 6)) ?v_53 ?v_54 ?v_55 ?v_56 ?v_105 ?v_106 ?v_107 ?v_108 (or ?v_64 ?v_76) (or ?v_66 (< (- t_C_rb_ga1_gc1_3 t_B_ra_rb_gb5_2) 4)) (or ?v_67 (< (- t_C_rb_ga1_gc1_3 t_B_ra_rb_gb4_2) 4)) (or ?v_68 (< (- t_C_rb_ga1_gc1_3 t_B_ra_rb_gb3_2) 4)) (or ?v_69 (< (- t_C_rb_ga1_gc1_3 t_B_ra_rb_gb2_2) 4)) (or (> ?v_70 4) ?v_71) (or (< ?v_65 5) ?v_72) (or (< (- t_B_ra_rb_gb5_2 t_A_ra_ga2_gb1_1) 5) ?v_72) (or (< ?v_73 5) (> ?v_73 5)) (or (< (- t_B_ra_rb_gb4_2 t_A_ra_ga2_gb1_1) 5) ?v_72) (or (< ?v_74 5) (> ?v_74 5)) (or (< (- t_B_ra_rb_gb3_2 t_A_ra_ga2_gb1_1) 5) ?v_72) (or (< ?v_75 5) (> ?v_75 5)) (or (< (- t_B_ra_rb_gb2_2 t_A_ra_ga2_gb1_1) 5) ?v_72) (or ?v_76 ?v_64) (or ?v_77 ?v_78) (or (> ?v_79 5) (< ?v_79 5)) (or (> ?v_80 5) (< ?v_80 5)) (or (> ?v_81 5) (< ?v_81 5)) ?v_82 ?v_83 ?v_84 ?v_85 ?v_117 ?v_118 ?v_119 (or ?v_92 ?v_109) (or ?v_94 (< (- t_B_ra_rb_gb2_2 t_A_ra_ga5_gb1_1) 5)) (or ?v_95 (< (- t_B_ra_rb_gb2_2 t_A_ra_ga4_gb1_1) 5)) (or ?v_96 (< (- t_B_ra_rb_gb2_2 t_A_ra_ga3_gb1_1) 5)) (or (< (- t_C_rb_ga1_gc5_3 t_B_ra_rb_gb2_2) 4) ?v_69) (or (< ?v_97 4) (> ?v_97 4)) (or (< (- t_C_rb_ga1_gc4_3 t_B_ra_rb_gb2_2) 4) ?v_69) (or (< ?v_98 4) (> ?v_98 4)) (or (< (- t_C_rb_ga1_gc3_3 t_B_ra_rb_gb2_2) 4) ?v_69) (or (< ?v_99 4) (> ?v_99 4)) (or (< (- t_C_rb_ga1_gc2_3 t_B_ra_rb_gb2_2) 4) ?v_69) (or ?v_100 ?v_101) (or (> ?v_102 4) (< ?v_102 4)) (or (> ?v_103 4) (< ?v_103 4)) (or (> ?v_104 4) (< ?v_104 4)) ?v_53 ?v_54 ?v_55 ?v_105 ?v_106 ?v_107 ?v_108 (or ?v_66 (< (- t_C_rb_ga1_gc2_3 t_B_ra_rb_gb5_2) 4)) (or ?v_67 (< (- t_C_rb_ga1_gc2_3 t_B_ra_rb_gb4_2) 4)) (or ?v_68 (< (- t_C_rb_ga1_gc2_3 t_B_ra_rb_gb3_2) 4)) (or ?v_109 ?v_92) (or (< ?v_63 5) ?v_96) (or (< (- t_B_ra_rb_gb5_2 t_A_ra_ga3_gb1_1) 5) ?v_96) (or (< ?v_110 5) (> ?v_110 5)) (or (< (- t_B_ra_rb_gb4_2 t_A_ra_ga3_gb1_1) 5) ?v_96) (or (< ?v_111 5) (> ?v_111 5)) (or (< (- t_B_ra_rb_gb3_2 t_A_ra_ga3_gb1_1) 5) ?v_96) (or ?v_112 ?v_62) (or ?v_113 ?v_114) (or (> ?v_115 5) (< ?v_115 5)) (or (> ?v_116 5) (< ?v_116 5)) ?v_82 ?v_83 ?v_85 ?v_117 ?v_118 ?v_119 (or ?v_94 (< (- t_B_ra_rb_gb3_2 t_A_ra_ga5_gb1_1) 5)) (or ?v_95 (< (- t_B_ra_rb_gb3_2 t_A_ra_ga4_gb1_1) 5)) (or (< (- t_C_rb_ga1_gc5_3 t_B_ra_rb_gb3_2) 4) ?v_68) (or (< ?v_120 4) (> ?v_120 4)) (or (< (- t_C_rb_ga1_gc4_3 t_B_ra_rb_gb3_2) 4) ?v_68) (or (< ?v_121 4) (> ?v_121 4)) (or (< (- t_C_rb_ga1_gc3_3 t_B_ra_rb_gb3_2) 4) ?v_68) (or ?v_122 ?v_123) (or (> ?v_124 4) (< ?v_124 4)) (or (> ?v_125 4) (< ?v_125 4)) ?v_53 ?v_54 ?v_105 ?v_106 ?v_107 (or ?v_66 (< (- t_C_rb_ga1_gc3_3 t_B_ra_rb_gb5_2) 4)) (or ?v_67 (< (- t_C_rb_ga1_gc3_3 t_B_ra_rb_gb4_2) 4)) (or ?v_126 ?v_90) (or (< ?v_61 5) ?v_95) (or (< (- t_B_ra_rb_gb5_2 t_A_ra_ga4_gb1_1) 5) ?v_95) (or (< ?v_127 5) (> ?v_127 5)) (or (< (- t_B_ra_rb_gb4_2 t_A_ra_ga4_gb1_1) 5) ?v_95) (or ?v_128 ?v_60) (or ?v_129 ?v_130) (or (> ?v_131 5) (< ?v_131 5)) ?v_82 ?v_85 ?v_117 ?v_118 (or ?v_94 (< (- t_B_ra_rb_gb4_2 t_A_ra_ga5_gb1_1) 5)) (or (< (- t_C_rb_ga1_gc5_3 t_B_ra_rb_gb4_2) 4) ?v_67) (or (< ?v_132 4) (> ?v_132 4)) (or (< (- t_C_rb_ga1_gc4_3 t_B_ra_rb_gb4_2) 4) ?v_67) (or ?v_133 ?v_134) (or (> ?v_135 4) (< ?v_135 4)) ?v_53 ?v_105 ?v_106 (or ?v_66 (< (- t_C_rb_ga1_gc4_3 t_B_ra_rb_gb5_2) 4)) (or ?v_136 ?v_88) (or (< ?v_59 5) ?v_94) (or (< (- t_B_ra_rb_gb5_2 t_A_ra_ga5_gb1_1) 5) ?v_94) (or ?v_137 ?v_58) (or ?v_138 ?v_139) ?v_85 ?v_117 (or (< (- t_C_rb_ga1_gc5_3 t_B_ra_rb_gb5_2) 4) ?v_66) (or ?v_140 ?v_141) ?v_85 ?v_117)))))))))))))))))))))))))))))))))))))))))))))))))))
(check-sat)
(exit)
